NAME: set1_case1_12_25
COMMENT: 770
VEHICLE: 38
TIME: 600
DIMENSION: 20
CAPACITY: 10
DELIVERY_SECTION
0 0 0
1 1 2.5
2 1 2.5
3 1 2.5
4 1 2.5
5 1 2.5
6 1 2.5
7 1 2.5
8 1 2.5
9 2 2.5
10 2 2.5
11 2 2.5
12 2 2.5
13 2 2.5
14 2 2.5
15 2 2.5
16 2 2.5
17 3 2.5
18 3 2.5
19 3 2.5
20 3 2.5
21 3 2.5
22 3 2.5
23 3 2.5
24 3 2.5
25 4 2.5
26 4 2.5
27 4 2.5
28 4 2.5
29 4 2.5
30 4 2.5
31 4 2.5
32 4 2.5
33 5 2.5
34 5 2.5
35 5 2.5
36 5 2.5
37 5 2.5
38 5 2.5
39 5 2.5
40 5 2.5
41 6 2.5
42 6 2.5
43 6 2.5
44 6 2.5
45 6 2.5
46 6 2.5
47 6 2.5
48 6 2.5
49 7 2.5
50 7 2.5
51 7 2.5
52 7 2.5
53 7 2.5
54 7 2.5
55 7 2.5
56 7 2.5
57 8 2.5
58 8 2.5
59 8 2.5
60 8 2.5
61 8 2.5
62 8 2.5
63 8 2.5
64 8 2.5
65 9 2.5
66 9 2.5
67 9 2.5
68 9 2.5
69 9 2.5
70 9 2.5
71 9 2.5
72 9 2.5
73 10 2.5
74 10 2.5
75 10 2.5
76 10 2.5
77 10 2.5
78 10 2.5
79 10 2.5
80 10 2.5
81 11 2.5
82 11 2.5
83 11 2.5
84 11 2.5
85 11 2.5
86 11 2.5
87 11 2.5
88 11 2.5
89 12 2.5
90 12 2.5
91 12 2.5
92 12 2.5
93 12 2.5
94 12 2.5
95 12 2.5
96 12 2.5
97 13 2.5
98 13 2.5
99 13 2.5
100 13 2.5
101 13 2.5
102 13 2.5
103 13 2.5
104 13 2.5
105 14 2.5
106 14 2.5
107 14 2.5
108 14 2.5
109 14 2.5
110 14 2.5
111 14 2.5
112 14 2.5
113 15 2.5
114 15 2.5
115 15 2.5
116 15 2.5
117 15 2.5
118 15 2.5
119 15 2.5
120 15 2.5
121 16 2.5
122 16 2.5
123 16 2.5
124 16 2.5
125 16 2.5
126 16 2.5
127 16 2.5
128 16 2.5
129 17 2.5
130 17 2.5
131 17 2.5
132 17 2.5
133 17 2.5
134 17 2.5
135 17 2.5
136 17 2.5
137 18 2.5
138 18 2.5
139 18 2.5
140 18 2.5
141 18 2.5
142 18 2.5
143 18 2.5
144 18 2.5
145 19 2.5
146 19 2.5
147 19 2.5
148 19 2.5
149 19 2.5
150 19 2.5
151 19 2.5
152 19 2.5
PICKUP_SECTION
0 0 0
1 1 1
2 2 1
3 3 1
4 4 1
5 5 1
6 6 1
7 7 1
8 8 1
9 9 1
10 10 1
11 11 1
12 12 1
13 13 1
14 14 1
15 15 1
16 16 1
17 17 1
18 18 1
19 19 1
NODE_SECTION
DISTANCE_SECTION
10 10 10 10 10 10 10 10 10 10 10 10 10 10 10 10 10 10 10 
10 10 10 10 10 10 10 10 10 10 10 10 10 10 10 10 10 10 
10 10 10 10 10 10 10 10 10 10 10 10 10 10 10 10 10 
10 10 10 10 10 10 10 10 10 10 10 10 10 10 10 10 
10 10 10 10 10 10 10 10 10 10 10 10 10 10 10 
10 10 10 10 10 10 10 10 10 10 10 10 10 10 
10 10 10 10 10 10 10 10 10 10 10 10 10 
10 10 10 10 10 10 10 10 10 10 10 10 
10 10 10 10 10 10 10 10 10 10 10 
10 10 10 10 10 10 10 10 10 10 
10 10 10 10 10 10 10 10 10 
10 10 10 10 10 10 10 10 
10 10 10 10 10 10 10 
10 10 10 10 10 10 
10 10 10 10 10 
10 10 10 10 
10 10 10 
10 10 
10 
DEPOT_SECTION
0
EOF